/*********************************************
    * Lab01 - FCD_FCR
    * Author: Coso
    * Creation Date: Mar, 2019
    *********************************************/
instance_name = "small_instance_06_FCD_FCR";

d = 2;
r = 3;

SCj = [102 105];
Fj = [4200, 4052];
Dk = [22 35 92];

Cjk = [[78 74 80]
 [79 55 58]];
Fjk = [[436 581 572]
 [843 547 667]];
